proyfinal/src/viki/013/experimentInOfficeAgust.take6.output/0b653fc9-d08b-4c3a-9699-b914564d3b47.als.out
Reading from standard input... Use '--help' for help.
============================[ Problem Statistics ]=============================
|                                                                             |
|  Number of variables:         87638                                         |
|  Number of clauses:          161767                                         |
|  Parse time:                   0.04 s                                       |
|                                                                             |
============================[ Search Statistics ]==============================
| Conflicts |          ORIGINAL         |          LEARNT          | Progress |
|           |    Vars  Clauses Literals |    Limit  Clauses Lit/Cl |          |
===============================================================================
|       100 |   65392   116019   289532 |    42540      100     23 | 25.384 % |
|       250 |   65392   116019   289532 |    46794      250     52 | 25.384 % |
|       475 |   65392   116019   289532 |    51473      475     43 | 25.384 % |
|       812 |   57913    92934   232469 |    56621      807     38 | 33.918 % |
|      1318 |   57913    92934   232469 |    62283     1313     41 | 33.918 % |
|      2077 |   57801    92493   231439 |    68511     1987     68 | 34.046 % |
|      3216 |   57731    92256   230866 |    75362     3119     74 | 34.126 % |
|      4924 |   57676    91975   230202 |    82899     4818     76 | 34.188 % |
|      7486 |   57383    90762   227416 |    91188     7274     89 | 34.523 % |
|     11330 |   56398    87031   218575 |   100307    10705     84 | 35.647 % |
|     17096 |   55860    85111   213873 |   110338    13881     83 | 36.261 % |
===============================================================================
restarts              : 71
conflicts             : 20527          (7137 /sec)
decisions             : 89130          (0.00 % random) (30989 /sec)
propagations          : 29879715       (10388630 /sec)
conflict literals     : 1669657        (42.35 % deleted)
Memory used           : 40.57 MB
CPU time              : 2.87619 s

INDETERMINATE
